(set-logic QF_BV)

(declare-const __ESBMC_ptr_obj_start_0 (_ BitVec 64))

(declare-const __ESBMC_ptr_obj_end_0 (_ BitVec 64))

(declare-const __ESBMC_ptr_obj_start_1 (_ BitVec 64))

(declare-const __ESBMC_ptr_obj_end_1 (_ BitVec 64))

(declare-const |smt_conv::__ESBMC_ptr_addr_range_0..start0| (_ BitVec 64))

(declare-const |smt_conv::__ESBMC_ptr_addr_range_0..end0| (_ BitVec 64))

(declare-const |smt_conv::__ESBMC_ptr_addr_range_1..start0| (_ BitVec 64))

(declare-const |smt_conv::__ESBMC_ptr_addr_range_1..end0| (_ BitVec 64))

(declare-const |smt_conv::smt_conv::collate_array_vals::3..start0| (_ BitVec 64))

(declare-const |smt_conv::smt_conv::collate_array_vals::3..end0| (_ BitVec 64))

(declare-const |smt_conv::smt_conv::collate_array_vals::4..start0| (_ BitVec 64))

(declare-const |smt_conv::smt_conv::collate_array_vals::4..end0| (_ BitVec 64))

(declare-const |smt_conv::smt_conv::collate_array_vals::7..start0| (_ BitVec 64))

(declare-const |smt_conv::smt_conv::collate_array_vals::7..end0| (_ BitVec 64))

(declare-const |c:Cairo.c@339@F@main@x?1!0&0#1| (_ BitVec 32))

(declare-const |nondet$symex::nondet42| (_ BitVec 32))

(declare-const |goto_symex::guard?0!0&0#1| (_ BitVec 1))

(declare-const |goto_symex::guard?0!0&0#2| (_ BitVec 1))

(declare-const |execution_statet::guard_exec?0!0| (_ BitVec 1))

(declare-const |c:Cairo.c@339@F@main@x?1!0&0#2| (_ BitVec 32))

(declare-const |goto_symex::guard?0!0&0#3| (_ BitVec 1))

(declare-const |c:Cairo.c@339@F@main@x?1!0&0#3| (_ BitVec 32))

(declare-const |goto_symex::guard?0!0&0#4| (_ BitVec 1))

(declare-const |c:Cairo.c@339@F@main@x?1!0&0#4| (_ BitVec 32))

(declare-const |goto_symex::guard?0!0&0#5| (_ BitVec 1))

(declare-const |c:Cairo.c@339@F@main@x?1!0&0#5| (_ BitVec 32))

(declare-const |goto_symex::guard?0!0&0#6| (_ BitVec 1))

(declare-const |c:Cairo.c@339@F@main@x?1!0&0#6| (_ BitVec 32))

(declare-const |goto_symex::guard?0!0&0#7| (_ BitVec 1))

(declare-const |c:Cairo.c@339@F@main@x?1!0&0#7| (_ BitVec 32))

(declare-const |goto_symex::guard?0!0&0#8| (_ BitVec 1))

(declare-const |c:Cairo.c@339@F@main@x?1!0&0#8| (_ BitVec 32))

(declare-const |goto_symex::guard?0!0&0#9| (_ BitVec 1))

(declare-const |c:Cairo.c@339@F@main@x?1!0&0#9| (_ BitVec 32))

(declare-const |goto_symex::guard?0!0&0#10| (_ BitVec 1))

(declare-const |c:Cairo.c@339@F@main@x?1!0&0#10| (_ BitVec 32))

(declare-const |goto_symex::guard?0!0&0#11| (_ BitVec 1))

(declare-const |c:Cairo.c@339@F@main@x?1!0&0#11| (_ BitVec 32))

(declare-const |goto_symex::guard?0!0&0#12| (_ BitVec 1))

(declare-const |c:Cairo.c@339@F@main@x?1!0&0#12| (_ BitVec 32))

(declare-const |goto_symex::guard?0!0&0#13| (_ BitVec 1))

(declare-const |c:Cairo.c@339@F@main@x?1!0&0#13| (_ BitVec 32))

(declare-const |goto_symex::guard?0!0&0#14| (_ BitVec 1))

(declare-const |c:Cairo.c@339@F@main@x?1!0&0#14| (_ BitVec 32))

(declare-const |goto_symex::guard?0!0&0#15| (_ BitVec 1))

(declare-const |c:Cairo.c@339@F@main@x?1!0&0#15| (_ BitVec 32))

(declare-const |goto_symex::guard?0!0&0#16| (_ BitVec 1))

(declare-const |c:Cairo.c@339@F@main@x?1!0&0#16| (_ BitVec 32))

(declare-const |goto_symex::guard?0!0&0#17| (_ BitVec 1))

(declare-const |c:Cairo.c@339@F@main@x?1!0&0#17| (_ BitVec 32))

(declare-const |goto_symex::guard?0!0&0#18| (_ BitVec 1))

(declare-const |c:Cairo.c@339@F@main@x?1!0&0#18| (_ BitVec 32))

(declare-const |goto_symex::guard?0!0&0#19| (_ BitVec 1))

(declare-const |c:Cairo.c@339@F@main@x?1!0&0#19| (_ BitVec 32))

(declare-const |goto_symex::guard?0!0&0#20| (_ BitVec 1))

(declare-const |c:Cairo.c@339@F@main@x?1!0&0#20| (_ BitVec 32))

(declare-const |goto_symex::guard?0!0&0#21| (_ BitVec 1))

(declare-const |c:Cairo.c@339@F@main@x?1!0&0#21| (_ BitVec 32))

(declare-const |goto_symex::guard?0!0&0#22| (_ BitVec 1))

(declare-const |c:Cairo.c@339@F@main@x?1!0&0#22| (_ BitVec 32))

(declare-const |goto_symex::guard?0!0&0#23| (_ BitVec 1))

(define-fun $e1 () (_ BitVec 1) 

 (bvand |goto_symex::guard?0!0&0#1| |goto_symex::guard?0!0&0#2|))

(define-fun $e2 () (_ BitVec 32) 

 (bvadd #b11111111111111111111111111111111 |c:Cairo.c@339@F@main@x?1!0&0#1|))

(define-fun $e3 () (_ BitVec 1) 

 (bvand $e1 |goto_symex::guard?0!0&0#3|))

(define-fun $e4 () (_ BitVec 32) 

 (bvadd #b11111111111111111111111111111111 |c:Cairo.c@339@F@main@x?1!0&0#2|))

(define-fun $e5 () (_ BitVec 1) 

 (bvand $e3 |goto_symex::guard?0!0&0#4|))

(define-fun $e6 () (_ BitVec 32) 

 (bvadd #b11111111111111111111111111111111 |c:Cairo.c@339@F@main@x?1!0&0#3|))

(define-fun $e7 () (_ BitVec 1) 

 (bvand $e5 |goto_symex::guard?0!0&0#5|))

(define-fun $e8 () (_ BitVec 32) 

 (bvadd #b11111111111111111111111111111111 |c:Cairo.c@339@F@main@x?1!0&0#4|))

(define-fun $e9 () (_ BitVec 1) 

 (bvand $e7 |goto_symex::guard?0!0&0#6|))

(define-fun $e10 () (_ BitVec 32) 

 (bvadd #b11111111111111111111111111111111 |c:Cairo.c@339@F@main@x?1!0&0#5|))

(define-fun $e11 () (_ BitVec 1) 

 (bvand $e9 |goto_symex::guard?0!0&0#7|))

(define-fun $e12 () (_ BitVec 32) 

 (bvadd #b11111111111111111111111111111111 |c:Cairo.c@339@F@main@x?1!0&0#6|))

(define-fun $e13 () (_ BitVec 1) 

 (bvand $e11 |goto_symex::guard?0!0&0#8|))

(define-fun $e14 () (_ BitVec 32) 

 (bvadd #b11111111111111111111111111111111 |c:Cairo.c@339@F@main@x?1!0&0#7|))

(define-fun $e15 () (_ BitVec 1) 

 (bvand $e13 |goto_symex::guard?0!0&0#9|))

(define-fun $e16 () (_ BitVec 32) 

 (bvadd #b11111111111111111111111111111111 |c:Cairo.c@339@F@main@x?1!0&0#8|))

(define-fun $e17 () (_ BitVec 1) 

 (bvand $e15 |goto_symex::guard?0!0&0#10|))

(define-fun $e18 () (_ BitVec 32) 

 (bvadd #b11111111111111111111111111111111 |c:Cairo.c@339@F@main@x?1!0&0#9|))

(define-fun $e19 () (_ BitVec 1) 

 (bvand $e17 |goto_symex::guard?0!0&0#11|))

(define-fun $e20 () (_ BitVec 32) 

 (bvadd #b11111111111111111111111111111111 |c:Cairo.c@339@F@main@x?1!0&0#10|))

(define-fun $e21 () (_ BitVec 1) 

 (bvand $e19 |goto_symex::guard?0!0&0#12|))

(define-fun $e22 () (_ BitVec 32) 

 (bvadd #b11111111111111111111111111111111 |c:Cairo.c@339@F@main@x?1!0&0#11|))

(define-fun $e23 () (_ BitVec 1) 

 (bvand $e21 |goto_symex::guard?0!0&0#13|))

(define-fun $e24 () (_ BitVec 32) 

 (bvadd #b11111111111111111111111111111111 |c:Cairo.c@339@F@main@x?1!0&0#12|))

(define-fun $e25 () (_ BitVec 1) 

 (bvand $e23 |goto_symex::guard?0!0&0#14|))

(define-fun $e26 () (_ BitVec 32) 

 (bvadd #b11111111111111111111111111111111 |c:Cairo.c@339@F@main@x?1!0&0#13|))

(define-fun $e27 () (_ BitVec 1) 

 (bvand $e25 |goto_symex::guard?0!0&0#15|))

(define-fun $e28 () (_ BitVec 32) 

 (bvadd #b11111111111111111111111111111111 |c:Cairo.c@339@F@main@x?1!0&0#14|))

(define-fun $e29 () (_ BitVec 1) 

 (bvand $e27 |goto_symex::guard?0!0&0#16|))

(define-fun $e30 () (_ BitVec 32) 

 (bvadd #b11111111111111111111111111111111 |c:Cairo.c@339@F@main@x?1!0&0#15|))

(define-fun $e31 () (_ BitVec 1) 

 (bvand $e29 |goto_symex::guard?0!0&0#17|))

(define-fun $e32 () (_ BitVec 32) 

 (bvadd #b11111111111111111111111111111111 |c:Cairo.c@339@F@main@x?1!0&0#16|))

(define-fun $e33 () (_ BitVec 1) 

 (bvand $e31 |goto_symex::guard?0!0&0#18|))

(define-fun $e34 () (_ BitVec 32) 

 (bvadd #b11111111111111111111111111111111 |c:Cairo.c@339@F@main@x?1!0&0#17|))

(define-fun $e35 () (_ BitVec 1) 

 (bvand $e33 |goto_symex::guard?0!0&0#19|))

(define-fun $e36 () (_ BitVec 32) 

 (bvadd #b11111111111111111111111111111111 |c:Cairo.c@339@F@main@x?1!0&0#18|))

(define-fun $e37 () (_ BitVec 1) 

 (bvand $e35 |goto_symex::guard?0!0&0#20|))

(define-fun $e38 () (_ BitVec 32) 

 (bvadd #b11111111111111111111111111111111 |c:Cairo.c@339@F@main@x?1!0&0#19|))

(define-fun $e39 () (_ BitVec 1) 

 (bvand $e37 |goto_symex::guard?0!0&0#21|))

(define-fun $e40 () (_ BitVec 32) 

 (bvadd #b11111111111111111111111111111111 |c:Cairo.c@339@F@main@x?1!0&0#20|))

(define-fun $e41 () (_ BitVec 1) 

 (bvand $e39 |goto_symex::guard?0!0&0#22|))

(define-fun $e42 () (_ BitVec 32) 

 (bvadd #b11111111111111111111111111111111 |c:Cairo.c@339@F@main@x?1!0&0#21|))

(assert 

 (= __ESBMC_ptr_obj_start_0 #b0000000000000000000000000000000000000000000000000000000000000000))

(assert 

 (= #b0000000000000000000000000000000000000000000000000000000000000000 __ESBMC_ptr_obj_end_0))

(assert 

 (= __ESBMC_ptr_obj_start_1 #b0000000000000000000000000000000000000000000000000000000000000001))

(assert 

 (= #b1111111111111111111111111111111111111111111111111111111111111111 __ESBMC_ptr_obj_end_1))

(assert 

 (= __ESBMC_ptr_obj_end_0 |smt_conv::__ESBMC_ptr_addr_range_0..end0|))

(assert 

 (= __ESBMC_ptr_obj_start_0 |smt_conv::__ESBMC_ptr_addr_range_0..start0|))

(assert 

 (= __ESBMC_ptr_obj_end_1 |smt_conv::__ESBMC_ptr_addr_range_1..end0|))

(assert 

 (= __ESBMC_ptr_obj_start_1 |smt_conv::__ESBMC_ptr_addr_range_1..start0|))

(assert 

 (= |smt_conv::smt_conv::collate_array_vals::3..end0| |smt_conv::smt_conv::collate_array_vals::4..end0|))

(assert 

 (= |smt_conv::smt_conv::collate_array_vals::3..start0| |smt_conv::smt_conv::collate_array_vals::4..start0|))

(assert 

 (= __ESBMC_ptr_obj_end_0 |smt_conv::smt_conv::collate_array_vals::7..end0|))

(assert 

 (= __ESBMC_ptr_obj_start_0 |smt_conv::smt_conv::collate_array_vals::7..start0|))

(assert 

 (= |c:Cairo.c@339@F@main@x?1!0&0#1| |nondet$symex::nondet42|))

(assert 

 (= |goto_symex::guard?0!0&0#1| 

  (ite 

   (bvslt #b00000000000000000000000000000000 |c:Cairo.c@339@F@main@x?1!0&0#1|) #b1 #b0)))

(assert 

 (= |goto_symex::guard?0!0&0#2| 

  (bvnot 

   (ite 

    (= #b00000000000000000000000000000000 |c:Cairo.c@339@F@main@x?1!0&0#1|) #b1 #b0))))

(assert 

 (= $e2 |c:Cairo.c@339@F@main@x?1!0&0#2|))

(assert 

 (= |goto_symex::guard?0!0&0#3| 

  (bvnot 

   (ite 

    (= #b00000000000000000000000000000000 |c:Cairo.c@339@F@main@x?1!0&0#2|) #b1 #b0))))

(assert 

 (= $e4 |c:Cairo.c@339@F@main@x?1!0&0#3|))

(assert 

 (= |goto_symex::guard?0!0&0#4| 

  (bvnot 

   (ite 

    (= #b00000000000000000000000000000000 |c:Cairo.c@339@F@main@x?1!0&0#3|) #b1 #b0))))

(assert 

 (= $e6 |c:Cairo.c@339@F@main@x?1!0&0#4|))

(assert 

 (= |goto_symex::guard?0!0&0#5| 

  (bvnot 

   (ite 

    (= #b00000000000000000000000000000000 |c:Cairo.c@339@F@main@x?1!0&0#4|) #b1 #b0))))

(assert 

 (= $e8 |c:Cairo.c@339@F@main@x?1!0&0#5|))

(assert 

 (= |goto_symex::guard?0!0&0#6| 

  (bvnot 

   (ite 

    (= #b00000000000000000000000000000000 |c:Cairo.c@339@F@main@x?1!0&0#5|) #b1 #b0))))

(assert 

 (= $e10 |c:Cairo.c@339@F@main@x?1!0&0#6|))

(assert 

 (= |goto_symex::guard?0!0&0#7| 

  (bvnot 

   (ite 

    (= #b00000000000000000000000000000000 |c:Cairo.c@339@F@main@x?1!0&0#6|) #b1 #b0))))

(assert 

 (= $e12 |c:Cairo.c@339@F@main@x?1!0&0#7|))

(assert 

 (= |goto_symex::guard?0!0&0#8| 

  (bvnot 

   (ite 

    (= #b00000000000000000000000000000000 |c:Cairo.c@339@F@main@x?1!0&0#7|) #b1 #b0))))

(assert 

 (= $e14 |c:Cairo.c@339@F@main@x?1!0&0#8|))

(assert 

 (= |goto_symex::guard?0!0&0#9| 

  (bvnot 

   (ite 

    (= #b00000000000000000000000000000000 |c:Cairo.c@339@F@main@x?1!0&0#8|) #b1 #b0))))

(assert 

 (= $e16 |c:Cairo.c@339@F@main@x?1!0&0#9|))

(assert 

 (= |goto_symex::guard?0!0&0#10| 

  (bvnot 

   (ite 

    (= #b00000000000000000000000000000000 |c:Cairo.c@339@F@main@x?1!0&0#9|) #b1 #b0))))

(assert 

 (= $e18 |c:Cairo.c@339@F@main@x?1!0&0#10|))

(assert 

 (= |goto_symex::guard?0!0&0#11| 

  (bvnot 

   (ite 

    (= #b00000000000000000000000000000000 |c:Cairo.c@339@F@main@x?1!0&0#10|) #b1 #b0))))

(assert 

 (= $e20 |c:Cairo.c@339@F@main@x?1!0&0#11|))

(assert 

 (= |goto_symex::guard?0!0&0#12| 

  (bvnot 

   (ite 

    (= #b00000000000000000000000000000000 |c:Cairo.c@339@F@main@x?1!0&0#11|) #b1 #b0))))

(assert 

 (= $e22 |c:Cairo.c@339@F@main@x?1!0&0#12|))

(assert 

 (= |goto_symex::guard?0!0&0#13| 

  (bvnot 

   (ite 

    (= #b00000000000000000000000000000000 |c:Cairo.c@339@F@main@x?1!0&0#12|) #b1 #b0))))

(assert 

 (= $e24 |c:Cairo.c@339@F@main@x?1!0&0#13|))

(assert 

 (= |goto_symex::guard?0!0&0#14| 

  (bvnot 

   (ite 

    (= #b00000000000000000000000000000000 |c:Cairo.c@339@F@main@x?1!0&0#13|) #b1 #b0))))

(assert 

 (= $e26 |c:Cairo.c@339@F@main@x?1!0&0#14|))

(assert 

 (= |goto_symex::guard?0!0&0#15| 

  (bvnot 

   (ite 

    (= #b00000000000000000000000000000000 |c:Cairo.c@339@F@main@x?1!0&0#14|) #b1 #b0))))

(assert 

 (= $e28 |c:Cairo.c@339@F@main@x?1!0&0#15|))

(assert 

 (= |goto_symex::guard?0!0&0#16| 

  (bvnot 

   (ite 

    (= #b00000000000000000000000000000000 |c:Cairo.c@339@F@main@x?1!0&0#15|) #b1 #b0))))

(assert 

 (= $e30 |c:Cairo.c@339@F@main@x?1!0&0#16|))

(assert 

 (= |goto_symex::guard?0!0&0#17| 

  (bvnot 

   (ite 

    (= #b00000000000000000000000000000000 |c:Cairo.c@339@F@main@x?1!0&0#16|) #b1 #b0))))

(assert 

 (= $e32 |c:Cairo.c@339@F@main@x?1!0&0#17|))

(assert 

 (= |goto_symex::guard?0!0&0#18| 

  (bvnot 

   (ite 

    (= #b00000000000000000000000000000000 |c:Cairo.c@339@F@main@x?1!0&0#17|) #b1 #b0))))

(assert 

 (= $e34 |c:Cairo.c@339@F@main@x?1!0&0#18|))

(assert 

 (= |goto_symex::guard?0!0&0#19| 

  (bvnot 

   (ite 

    (= #b00000000000000000000000000000000 |c:Cairo.c@339@F@main@x?1!0&0#18|) #b1 #b0))))

(assert 

 (= $e36 |c:Cairo.c@339@F@main@x?1!0&0#19|))

(assert 

 (= |goto_symex::guard?0!0&0#20| 

  (bvnot 

   (ite 

    (= #b00000000000000000000000000000000 |c:Cairo.c@339@F@main@x?1!0&0#19|) #b1 #b0))))

(assert 

 (= $e38 |c:Cairo.c@339@F@main@x?1!0&0#20|))

(assert 

 (= |goto_symex::guard?0!0&0#21| 

  (bvnot 

   (ite 

    (= #b00000000000000000000000000000000 |c:Cairo.c@339@F@main@x?1!0&0#20|) #b1 #b0))))

(assert 

 (= $e40 |c:Cairo.c@339@F@main@x?1!0&0#21|))

(assert 

 (= |goto_symex::guard?0!0&0#22| 

  (bvnot 

   (ite 

    (= #b00000000000000000000000000000000 |c:Cairo.c@339@F@main@x?1!0&0#21|) #b1 #b0))))

(assert 

 (= $e42 |c:Cairo.c@339@F@main@x?1!0&0#22|))

(assert 

 (= |goto_symex::guard?0!0&0#23| 

  (bvnot 

   (ite 

    (= #b00000000000000000000000000000000 |c:Cairo.c@339@F@main@x?1!0&0#22|) #b1 #b0))))

(assert (= 

 (bvnot 

  (bvand 

   (bvnot 

    (bvand |execution_statet::guard_exec?0!0| 

     (bvand 

      (bvand $e41 |goto_symex::guard?0!0&0#23|) 

      (bvand 

       ((_ extract 31 31) |c:Cairo.c@339@F@main@x?1!0&0#22|) 

       (bvnot 

        ((_ extract 31 31) 

         (bvadd #b11111111111111111111111111111111 |c:Cairo.c@339@F@main@x?1!0&0#22|))))))) 

   (bvand 

    (bvnot 

     (bvand |execution_statet::guard_exec?0!0| 

      (bvand $e41 

       (bvand 

        ((_ extract 31 31) |c:Cairo.c@339@F@main@x?1!0&0#21|) 

        (bvnot 

         ((_ extract 31 31) $e42)))))) 

    (bvand 

     (bvnot 

      (bvand |execution_statet::guard_exec?0!0| 

       (bvand $e39 

        (bvand 

         ((_ extract 31 31) |c:Cairo.c@339@F@main@x?1!0&0#20|) 

         (bvnot 

          ((_ extract 31 31) $e40)))))) 

     (bvand 

      (bvnot 

       (bvand |execution_statet::guard_exec?0!0| 

        (bvand $e37 

         (bvand 

          ((_ extract 31 31) |c:Cairo.c@339@F@main@x?1!0&0#19|) 

          (bvnot 

           ((_ extract 31 31) $e38)))))) 

      (bvand 

       (bvnot 

        (bvand |execution_statet::guard_exec?0!0| 

         (bvand $e35 

          (bvand 

           ((_ extract 31 31) |c:Cairo.c@339@F@main@x?1!0&0#18|) 

           (bvnot 

            ((_ extract 31 31) $e36)))))) 

       (bvand 

        (bvnot 

         (bvand |execution_statet::guard_exec?0!0| 

          (bvand $e33 

           (bvand 

            ((_ extract 31 31) |c:Cairo.c@339@F@main@x?1!0&0#17|) 

            (bvnot 

             ((_ extract 31 31) $e34)))))) 

        (bvand 

         (bvnot 

          (bvand |execution_statet::guard_exec?0!0| 

           (bvand $e31 

            (bvand 

             ((_ extract 31 31) |c:Cairo.c@339@F@main@x?1!0&0#16|) 

             (bvnot 

              ((_ extract 31 31) $e32)))))) 

         (bvand 

          (bvnot 

           (bvand |execution_statet::guard_exec?0!0| 

            (bvand $e29 

             (bvand 

              ((_ extract 31 31) |c:Cairo.c@339@F@main@x?1!0&0#15|) 

              (bvnot 

               ((_ extract 31 31) $e30)))))) 

          (bvand 

           (bvnot 

            (bvand |execution_statet::guard_exec?0!0| 

             (bvand $e27 

              (bvand 

               ((_ extract 31 31) |c:Cairo.c@339@F@main@x?1!0&0#14|) 

               (bvnot 

                ((_ extract 31 31) $e28)))))) 

           (bvand 

            (bvnot 

             (bvand |execution_statet::guard_exec?0!0| 

              (bvand $e25 

               (bvand 

                ((_ extract 31 31) |c:Cairo.c@339@F@main@x?1!0&0#13|) 

                (bvnot 

                 ((_ extract 31 31) $e26)))))) 

            (bvand 

             (bvnot 

              (bvand |execution_statet::guard_exec?0!0| 

               (bvand $e23 

                (bvand 

                 ((_ extract 31 31) |c:Cairo.c@339@F@main@x?1!0&0#12|) 

                 (bvnot 

                  ((_ extract 31 31) $e24)))))) 

             (bvand 

              (bvnot 

               (bvand |execution_statet::guard_exec?0!0| 

                (bvand $e21 

                 (bvand 

                  ((_ extract 31 31) |c:Cairo.c@339@F@main@x?1!0&0#11|) 

                  (bvnot 

                   ((_ extract 31 31) $e22)))))) 

              (bvand 

               (bvnot 

                (bvand |execution_statet::guard_exec?0!0| 

                 (bvand $e19 

                  (bvand 

                   ((_ extract 31 31) |c:Cairo.c@339@F@main@x?1!0&0#10|) 

                   (bvnot 

                    ((_ extract 31 31) $e20)))))) 

               (bvand 

                (bvnot 

                 (bvand |execution_statet::guard_exec?0!0| 

                  (bvand $e17 

                   (bvand 

                    ((_ extract 31 31) |c:Cairo.c@339@F@main@x?1!0&0#9|) 

                    (bvnot 

                     ((_ extract 31 31) $e18)))))) 

                (bvand 

                 (bvnot 

                  (bvand |execution_statet::guard_exec?0!0| 

                   (bvand $e15 

                    (bvand 

                     ((_ extract 31 31) |c:Cairo.c@339@F@main@x?1!0&0#8|) 

                     (bvnot 

                      ((_ extract 31 31) $e16)))))) 

                 (bvand 

                  (bvnot 

                   (bvand |execution_statet::guard_exec?0!0| 

                    (bvand $e13 

                     (bvand 

                      ((_ extract 31 31) |c:Cairo.c@339@F@main@x?1!0&0#7|) 

                      (bvnot 

                       ((_ extract 31 31) $e14)))))) 

                  (bvand 

                   (bvnot 

                    (bvand |execution_statet::guard_exec?0!0| 

                     (bvand $e11 

                      (bvand 

                       ((_ extract 31 31) |c:Cairo.c@339@F@main@x?1!0&0#6|) 

                       (bvnot 

                        ((_ extract 31 31) $e12)))))) 

                   (bvand 

                    (bvnot 

                     (bvand |execution_statet::guard_exec?0!0| 

                      (bvand $e9 

                       (bvand 

                        ((_ extract 31 31) |c:Cairo.c@339@F@main@x?1!0&0#5|) 

                        (bvnot 

                         ((_ extract 31 31) $e10)))))) 

                    (bvand 

                     (bvnot 

                      (bvand |execution_statet::guard_exec?0!0| 

                       (bvand $e7 

                        (bvand 

                         ((_ extract 31 31) |c:Cairo.c@339@F@main@x?1!0&0#4|) 

                         (bvnot 

                          ((_ extract 31 31) $e8)))))) 

                     (bvand 

                      (bvnot 

                       (bvand |execution_statet::guard_exec?0!0| 

                        (bvand $e5 

                         (bvand 

                          ((_ extract 31 31) |c:Cairo.c@339@F@main@x?1!0&0#3|) 

                          (bvnot 

                           ((_ extract 31 31) $e6)))))) 

                      (bvand 

                       (bvnot 

                        (bvand |execution_statet::guard_exec?0!0| 

                         (bvand $e1 

                          (bvand 

                           ((_ extract 31 31) |c:Cairo.c@339@F@main@x?1!0&0#1|) 

                           (bvnot 

                            ((_ extract 31 31) $e2)))))) 

                       (bvnot 

                        (bvand |execution_statet::guard_exec?0!0| 

                         (bvand $e3 

                          (bvand 

                           ((_ extract 31 31) |c:Cairo.c@339@F@main@x?1!0&0#2|) 

                           (bvnot 

                            ((_ extract 31 31) $e4)))))))))))))))))))))))))))) #b1))

(check-sat)

(exit)
